p cnf 16 292
-1 -2 -3 0
-1 -2 -4 0
-1 -3 -2 0
-1 -3 -4 0
-1 -4 -2 0
-1 -4 -3 0
-2 -1 -3 0
-2 -1 -4 0
-2 -3 -1 0
-2 -3 -4 0
-2 -4 -1 0
-2 -4 -3 0
-3 -1 -2 0
-3 -1 -4 0
-3 -2 -1 0
-3 -2 -4 0
-3 -4 -1 0
-3 -4 -2 0
-4 -1 -2 0
-4 -1 -3 0
-4 -2 -1 0
-4 -2 -3 0
-4 -3 -1 0
-4 -3 -2 0
2 3 4 0
1 3 4 0
1 2 4 0
1 2 3 0
-5 -9 -13 0
-5 -13 -9 0
-9 -5 -13 0
-9 -13 -5 0
-13 -5 -9 0
-13 -9 -5 0
9 13 0
5 13 0
5 9 0
-8 -12 -16 0
-8 -16 -12 0
-12 -8 -16 0
-12 -16 -8 0
-16 -8 -12 0
-16 -12 -8 0
12 16 0
8 16 0
8 12 0
-6 -10 -14 0
-6 -10 -15 0
-6 -10 -11 0
-6 -10 -7 0
-6 -14 -10 0
-6 -14 -15 0
-6 -14 -11 0
-6 -14 -7 0
-6 -15 -10 0
-6 -15 -14 0
-6 -15 -11 0
-6 -15 -7 0
-6 -11 -10 0
-6 -11 -14 0
-6 -11 -15 0
-6 -11 -7 0
-6 -7 -10 0
-6 -7 -14 0
-6 -7 -15 0
-6 -7 -11 0
-10 -6 -14 0
-10 -6 -15 0
-10 -6 -11 0
-10 -6 -7 0
-10 -14 -6 0
-10 -14 -15 0
-10 -14 -11 0
-10 -14 -7 0
-10 -15 -6 0
-10 -15 -14 0
-10 -15 -11 0
-10 -15 -7 0
-10 -11 -6 0
-10 -11 -14 0
-10 -11 -15 0
-10 -11 -7 0
-10 -7 -6 0
-10 -7 -14 0
-10 -7 -15 0
-10 -7 -11 0
-14 -6 -10 0
-14 -6 -15 0
-14 -6 -11 0
-14 -6 -7 0
-14 -10 -6 0
-14 -10 -15 0
-14 -10 -11 0
-14 -10 -7 0
-14 -15 -6 0
-14 -15 -10 0
-14 -15 -11 0
-14 -15 -7 0
-14 -11 -6 0
-14 -11 -10 0
-14 -11 -15 0
-14 -11 -7 0
-14 -7 -6 0
-14 -7 -10 0
-14 -7 -15 0
-14 -7 -11 0
-15 -6 -10 0
-15 -6 -14 0
-15 -6 -11 0
-15 -6 -7 0
-15 -10 -6 0
-15 -10 -14 0
-15 -10 -11 0
-15 -10 -7 0
-15 -14 -6 0
-15 -14 -10 0
-15 -14 -11 0
-15 -14 -7 0
-15 -11 -6 0
-15 -11 -10 0
-15 -11 -14 0
-15 -11 -7 0
-15 -7 -6 0
-15 -7 -10 0
-15 -7 -14 0
-15 -7 -11 0
-11 -6 -10 0
-11 -6 -14 0
-11 -6 -15 0
-11 -6 -7 0
-11 -10 -6 0
-11 -10 -14 0
-11 -10 -15 0
-11 -10 -7 0
-11 -14 -6 0
-11 -14 -10 0
-11 -14 -15 0
-11 -14 -7 0
-11 -15 -6 0
-11 -15 -10 0
-11 -15 -14 0
-11 -15 -7 0
-11 -7 -6 0
-11 -7 -10 0
-11 -7 -14 0
-11 -7 -15 0
-7 -6 -10 0
-7 -6 -14 0
-7 -6 -15 0
-7 -6 -11 0
-7 -10 -6 0
-7 -10 -14 0
-7 -10 -15 0
-7 -10 -11 0
-7 -14 -6 0
-7 -14 -10 0
-7 -14 -15 0
-7 -14 -11 0
-7 -15 -6 0
-7 -15 -10 0
-7 -15 -14 0
-7 -15 -11 0
-7 -11 -6 0
-7 -11 -10 0
-7 -11 -14 0
-7 -11 -15 0
10 14 15 11 7 0
6 14 15 11 7 0
6 10 15 11 7 0
6 10 14 11 7 0
6 10 14 15 7 0
6 10 14 15 11 0
-1 -5 -2 0
-1 -2 -5 0
-1 5 2 0
-2 -6 -3 0
-2 -6 -1 0
-2 -3 -6 0
-2 -3 -1 0
-2 -1 -6 0
-2 -1 -3 0
-2 6 3 1 0
-3 -7 -4 0
-3 -7 -2 0
-3 -4 -7 0
-3 -4 -2 0
-3 -2 -7 0
-3 -2 -4 0
-3 7 4 2 0
-4 -8 -3 0
-4 -3 -8 0
-4 8 3 0
-5 -9 -1 0
-5 -9 -6 0
-5 -1 -9 0
-5 -1 -6 0
-5 -6 -9 0
-5 -6 -1 0
-5 9 1 6 0
-6 -10 -2 0
-6 -10 -7 0
-6 -10 -5 0
-6 -2 -10 0
-6 -2 -7 0
-6 -2 -5 0
-6 -7 -10 0
-6 -7 -2 0
-6 -7 -5 0
-6 -5 -10 0
-6 -5 -2 0
-6 -5 -7 0
-6 10 2 7 5 0
-7 -11 -3 0
-7 -11 -8 0
-7 -11 -6 0
-7 -3 -11 0
-7 -3 -8 0
-7 -3 -6 0
-7 -8 -11 0
-7 -8 -3 0
-7 -8 -6 0
-7 -6 -11 0
-7 -6 -3 0
-7 -6 -8 0
-7 11 3 8 6 0
-8 -12 -4 0
-8 -12 -7 0
-8 -4 -12 0
-8 -4 -7 0
-8 -7 -12 0
-8 -7 -4 0
-8 12 4 7 0
-9 -13 -5 0
-9 -13 -10 0
-9 -5 -13 0
-9 -5 -10 0
-9 -10 -13 0
-9 -10 -5 0
-9 13 5 10 0
-10 -14 -6 0
-10 -14 -11 0
-10 -14 -9 0
-10 -6 -14 0
-10 -6 -11 0
-10 -6 -9 0
-10 -11 -14 0
-10 -11 -6 0
-10 -11 -9 0
-10 -9 -14 0
-10 -9 -6 0
-10 -9 -11 0
-10 14 6 11 9 0
-11 -15 -7 0
-11 -15 -12 0
-11 -15 -10 0
-11 -7 -15 0
-11 -7 -12 0
-11 -7 -10 0
-11 -12 -15 0
-11 -12 -7 0
-11 -12 -10 0
-11 -10 -15 0
-11 -10 -7 0
-11 -10 -12 0
-11 15 7 12 10 0
-12 -16 -8 0
-12 -16 -11 0
-12 -8 -16 0
-12 -8 -11 0
-12 -11 -16 0
-12 -11 -8 0
-12 16 8 11 0
-13 -9 -14 0
-13 -14 -9 0
-13 9 14 0
-14 -10 -15 0
-14 -10 -13 0
-14 -15 -10 0
-14 -15 -13 0
-14 -13 -10 0
-14 -13 -15 0
-14 10 15 13 0
-15 -11 -16 0
-15 -11 -14 0
-15 -16 -11 0
-15 -16 -14 0
-15 -14 -11 0
-15 -14 -16 0
-15 11 16 14 0
-16 -12 -15 0
-16 -15 -12 0
-16 12 15 0
